(set-info :source |printed by MathSAT|)
(declare-fun |!{N}| () Int)
(declare-fun |!{N}.next| () Int)
(declare-fun |!{i}| () Int)
(declare-fun |!{i}.next| () Int)
(declare-fun |!{x}| () Int)
(declare-fun |!{x}.next| () Int)
(declare-fun |!{a.1}| () (Array Int Int))
(declare-fun |!{a.1}.next| () (Array Int Int))
(declare-fun |!{b.2}| () (Array Int Int))
(declare-fun |!{b.2}.next| () (Array Int Int))
(declare-fun |!pc[0]| () Bool)
(declare-fun |!pc[0].next| () Bool)
(declare-fun |!pc[1]| () Bool)
(declare-fun |!pc[1].next| () Bool)
(declare-fun |!pc[2]| () Bool)
(declare-fun |!pc[2].next| () Bool)
(declare-fun |%{x}#1| () Int)
(declare-fun |%{a.1}#1| () (Array Int Int))
(declare-fun |%{b.2}#1| () (Array Int Int))
(declare-fun nd<0> () Int)
(define-fun .def_33 () Bool (! |!pc[2]| :next |!pc[2].next|))
(define-fun .def_38 () Bool (not .def_33))
(define-fun .def_31 () Bool (! |!pc[1]| :next |!pc[1].next|))
(define-fun .def_36 () Bool (not .def_31))
(define-fun .def_29 () Bool (! |!pc[0]| :next |!pc[0].next|))
(define-fun .def_35 () Bool (not .def_29))
(define-fun .def_37 () Bool (and .def_35 .def_36))
(define-fun .def_39 () Bool (! (and .def_37 .def_38) :init true))
(define-fun .def_145 () Bool (and .def_29 .def_36))
(define-fun .def_164 () Bool (and .def_38 .def_145))
(define-fun .def_60 () Bool (not |!pc[1].next|))
(define-fun .def_61 () Bool (and |!pc[0].next| .def_60))
(define-fun .def_147 () Bool (and |!pc[2].next| .def_61))
(define-fun .def_167 () Bool (and .def_147 .def_164))
(define-fun .def_8 () Int (! |!{N}| :next |!{N}.next|))
(define-fun .def_76 () Bool (= .def_8 |!{N}.next|))
(define-fun .def_51 () Bool (= |!{i}.next| 0))
(define-fun .def_159 () Bool (and .def_51 .def_76))
(define-fun .def_12 () Int (! |!{x}| :next |!{x}.next|))
(define-fun .def_80 () Bool (= .def_12 |!{x}.next|))
(define-fun .def_160 () Bool (and .def_80 .def_159))
(define-fun .def_14 () (Array Int Int) (! |!{a.1}| :next |!{a.1}.next|))
(define-fun .def_82 () Bool (= .def_14 |!{a.1}.next|))
(define-fun .def_161 () Bool (and .def_82 .def_160))
(define-fun .def_16 () (Array Int Int) (! |!{b.2}| :next |!{b.2}.next|))
(define-fun .def_84 () Bool (= .def_16 |!{b.2}.next|))
(define-fun .def_162 () Bool (and .def_84 .def_161))
(define-fun .def_10 () Int (! |!{i}| :next |!{i}.next|))
(define-fun .def_125 () Bool (<= .def_8 .def_10))
(define-fun .def_163 () Bool (and .def_125 .def_162))
(define-fun .def_168 () Bool (and .def_163 .def_167))
(define-fun .def_62 () Bool (not |!pc[2].next|))
(define-fun .def_63 () Bool (and .def_61 .def_62))
(define-fun .def_165 () Bool (and .def_63 .def_164))
(define-fun .def_154 () (Array Int Int) (store .def_14 .def_10 42))
(define-fun .def_155 () Bool (= |!{a.1}.next| .def_154))
(define-fun .def_131 () Int (* (- 1) |!{i}.next|))
(define-fun .def_132 () Int (+ .def_10 .def_131))
(define-fun .def_133 () Bool (= .def_132 (- 1)))
(define-fun .def_134 () Bool (and .def_76 .def_133))
(define-fun .def_135 () Bool (and .def_80 .def_134))
(define-fun .def_156 () Bool (and .def_135 .def_155))
(define-fun .def_157 () Bool (and .def_84 .def_156))
(define-fun .def_126 () Bool (not .def_125))
(define-fun .def_158 () Bool (and .def_126 .def_157))
(define-fun .def_166 () Bool (and .def_158 .def_165))
(define-fun .def_169 () Bool (or .def_166 .def_168))
(define-fun .def_146 () Bool (and .def_33 .def_145))
(define-fun .def_108 () Bool (not |!pc[0].next|))
(define-fun .def_109 () Bool (and |!pc[1].next| .def_108))
(define-fun .def_110 () Bool (and .def_62 .def_109))
(define-fun .def_150 () Bool (and .def_110 .def_146))
(define-fun .def_140 () Bool (= |!{x}.next| 0))
(define-fun .def_78 () Bool (= .def_10 |!{i}.next|))
(define-fun .def_87 () Bool (and .def_76 .def_78))
(define-fun .def_141 () Bool (and .def_87 .def_140))
(define-fun .def_142 () Bool (and .def_82 .def_141))
(define-fun .def_143 () Bool (and .def_84 .def_142))
(define-fun .def_144 () Bool (and .def_125 .def_143))
(define-fun .def_151 () Bool (and .def_144 .def_150))
(define-fun .def_148 () Bool (and .def_146 .def_147))
(define-fun .def_128 () Int (select .def_14 .def_10))
(define-fun .def_129 () (Array Int Int) (store .def_16 .def_10 .def_128))
(define-fun .def_137 () Bool (= |!{b.2}.next| .def_129))
(define-fun .def_136 () Bool (and .def_82 .def_135))
(define-fun .def_138 () Bool (and .def_136 .def_137))
(define-fun .def_139 () Bool (and .def_126 .def_138))
(define-fun .def_149 () Bool (and .def_139 .def_148))
(define-fun .def_152 () Bool (or .def_149 .def_151))
(define-fun .def_120 () Bool (and .def_29 .def_31))
(define-fun .def_121 () Bool (and .def_38 .def_120))
(define-fun .def_122 () Bool (and .def_110 .def_121))
(define-fun .def_89 () Int (* (- 1) |!{x}.next|))
(define-fun .def_90 () Int (+ .def_12 .def_89))
(define-fun .def_91 () Bool (= .def_90 (- 1)))
(define-fun .def_92 () Bool (and .def_87 .def_91))
(define-fun .def_93 () Bool (and .def_82 .def_92))
(define-fun .def_94 () Bool (and .def_84 .def_93))
(define-fun .def_123 () Bool (and .def_94 .def_122))
(define-fun .def_114 () Bool (and .def_60 .def_108))
(define-fun .def_115 () Bool (and |!pc[2].next| .def_114))
(define-fun .def_102 () Bool (and .def_31 .def_35))
(define-fun .def_103 () Bool (and .def_38 .def_102))
(define-fun .def_116 () Bool (and .def_103 .def_115))
(define-fun .def_66 () Bool (<= .def_8 .def_12))
(define-fun .def_97 () Bool (and .def_66 .def_76))
(define-fun .def_98 () Bool (and .def_78 .def_97))
(define-fun .def_99 () Bool (and .def_80 .def_98))
(define-fun .def_100 () Bool (and .def_82 .def_99))
(define-fun .def_101 () Bool (and .def_84 .def_100))
(define-fun .def_117 () Bool (and .def_101 .def_116))
(define-fun .def_111 () Bool (and .def_103 .def_110))
(define-fun .def_68 () Int (select .def_16 .def_12))
(define-fun .def_70 () Bool (= .def_68 42))
(define-fun .def_95 () Bool (and .def_70 .def_94))
(define-fun .def_67 () Bool (not .def_66))
(define-fun .def_96 () Bool (and .def_67 .def_95))
(define-fun .def_112 () Bool (and .def_96 .def_111))
(define-fun .def_104 () Bool (and |!pc[0].next| |!pc[1].next|))
(define-fun .def_105 () Bool (and .def_62 .def_104))
(define-fun .def_106 () Bool (and .def_103 .def_105))
(define-fun .def_71 () Bool (not .def_70))
(define-fun .def_77 () Bool (and .def_71 .def_76))
(define-fun .def_79 () Bool (and .def_77 .def_78))
(define-fun .def_81 () Bool (and .def_79 .def_80))
(define-fun .def_83 () Bool (and .def_81 .def_82))
(define-fun .def_85 () Bool (and .def_83 .def_84))
(define-fun .def_86 () Bool (and .def_67 .def_85))
(define-fun .def_107 () Bool (and .def_86 .def_106))
(define-fun .def_113 () Bool (or .def_107 .def_112))
(define-fun .def_118 () Bool (or .def_113 .def_117))
(define-fun .def_64 () Bool (and .def_39 .def_63))
(define-fun .def_57 () Bool (= |!{b.2}.next| |%{b.2}#1|))
(define-fun .def_55 () Bool (= |!{a.1}.next| |%{a.1}#1|))
(define-fun .def_53 () Bool (= |!{x}.next| |%{x}#1|))
(define-fun .def_50 () Bool (= |!{N}.next| nd<0>))
(define-fun .def_52 () Bool (and .def_50 .def_51))
(define-fun .def_54 () Bool (and .def_52 .def_53))
(define-fun .def_56 () Bool (and .def_54 .def_55))
(define-fun .def_58 () Bool (and .def_56 .def_57))
(define-fun .def_48 () Bool (<= nd<0> 0))
(define-fun .def_49 () Bool (not .def_48))
(define-fun .def_59 () Bool (and .def_49 .def_58))
(define-fun .def_65 () Bool (and .def_59 .def_64))
(define-fun .def_119 () Bool (or .def_65 .def_118))
(define-fun .def_124 () Bool (or .def_119 .def_123))
(define-fun .def_153 () Bool (or .def_124 .def_152))
(define-fun .def_170 () Bool (! (or .def_153 .def_169) :trans true))
(define-fun .def_171 () Bool (! (not .def_121) :invar-property 0))
(assert true)
